Crypto/instances/samples/hf_n23/hf_n23_cnf14.sol
c DPLL-like Solver for max-min SAT
f file hf_n23_cnf14.cnf
p cnf 23 91
s max  91 14 15 16 13 7 6 5 8 -19 11 -9 12 -10 2 -3 21 1 -4 -22 -18 -20 -23 -17
s min  74 -14 15 -16 13 -7 6 -5 -8 -19 11 9 -12 -10 2 3 -21 1 -4 22 -18 -20 -23 -17